0
Node Left Objective IInf Best_Integer Best_Bound ItCnt Gap
0+ 0 nan nan 17080.7259 -1708.0726 nan 110.00%
0+ 0 nan nan -66.3573 -1708.0726 nan ---
0 0 -93.0816 11 -66.3573 -93.0816 79 40.27%
0+ 0 nan nan -85.7652 -93.0816 nan 8.53%
0 0 -91.4514 13 -85.7652 LiftProj:7 97 6.63%
0 0 -91.0751 12 -85.7652 LiftProj:8 117 6.19%
0 0 -90.7669 14 -85.7652 LiftProj:11 126 5.83%
0+ 0 nan nan -86.4772 -90.7669 nan 4.96%
0 0 -90.7217 13 -86.4772 LiftProj:9 133 4.91%
0 0 -90.3964 14 -86.4772 LiftProj:9 142 4.53%
0 0 -90.3800 15 -86.4772 LiftProj:10 144 4.51%
0 0 -89.9773 15 -86.4772 LiftProj:7 151 4.05%
0 0 -89.9380 13 -86.4772 LiftProj:11 161 4.00%
0 0 -89.8572 16 -86.4772 LiftProj:10 168 3.91%
0 0 -89.8299 18 -86.4772 LiftProj:10 172 3.88%
0 0 -89.7251 16 -86.4772 LiftProj:10 184 3.76%
0 0 -89.6894 17 -86.4772 LiftProj:9 193 3.71%
0 0 -89.6782 16 -86.4772 LiftProj:15 203 3.70%
0+ 0 nan nan -87.2074 -89.6782 nan 2.83%
0 0 -89.5916 13 -87.2074 LiftProj:6 213 2.73%
0 0 -89.3677 14 -87.2074 LiftProj:6 228 2.48%
0 0 -89.3436 17 -87.2074 LiftProj:9 270 2.45%
0 0 -89.3432 20 -87.2074 LiftProj:14 281 2.45%
0 2 -88.9146 9 -87.2074 -88.9090 281 1.95%
CPXPARAM_MIP_Cuts_LiftProj 12
1
Node Left Objective IInf Best_Integer Best_Bound ItCnt Gap
0+ 0 nan nan 17807.5550 -1780.7555 nan 110.00%
0+ 0 nan nan -246.6070 -1780.7555 nan 622.10%
0 0 -451.0443 22 -246.6070 -451.0443 124 82.90%
0+ 0 nan nan -437.4023 -451.0443 nan 3.12%
0 0 -450.5162 17 -437.4023 LiftProj:12 144 3.00%
0+ 0 nan nan -441.7063 -450.5162 nan 1.99%
0 0 -450.3402 18 -441.7063 LiftProj:9 176 1.95%
0 0 -450.0915 19 -441.7063 LiftProj:14 210 1.90%
0 0 -450.0145 25 -441.7063 LiftProj:15 230 1.88%
0 0 -449.9550 21 -441.7063 LiftProj:15 248 1.87%
0 0 -449.6690 25 -441.7063 LiftProj:15 280 1.80%
0 0 -449.5058 32 -441.7063 LiftProj:15 298 1.77%
0 0 -449.4451 30 -441.7063 LiftProj:21 317 1.75%
0 0 -449.4094 34 -441.7063 LiftProj:14 324 1.74%
0+ 0 nan nan -442.9897 -449.4094 nan 1.45%
0 0 -449.1780 32 -442.9897 LiftProj:18 340 1.40%
0 0 -448.8315 30 -442.9897 LiftProj:19 357 1.32%
0 0 -448.8261 31 -442.9897 LiftProj:14 361 1.32%
0+ 0 nan nan -444.6720 -448.8261 nan 0.93%
0 2 -448.1961 18 -444.6720 -448.1808 361 0.79%
CPXPARAM_MIP_Cuts_LiftProj 25
2
Node Left Objective IInf Best_Integer Best_Bound ItCnt Gap
0+ 0 nan nan 21992.9672 -2199.2967 nan 110.00%
0+ 0 nan nan -144.9985 -2199.2967 nan ---
0 0 cutoff -144.9985 -144.9985 77 0.00%
0 0 cutoff -144.9985 -144.9985 77 0.00% 0
CPXPARAM_MIP_Cuts_LiftProj 0
3
Node Left Objective IInf Best_Integer Best_Bound ItCnt Gap
0+ 0 nan nan 15130.5599 -1513.0560 nan 110.00%
0+ 0 nan nan -319.1991 -1513.0560 nan 374.02%
0 0 -373.2689 13 -319.1991 -373.2689 81 16.94%
0+ 0 nan nan -322.8337 -373.2689 nan 15.62%
0 0 -373.2689 11 -322.8337 LiftProj:4 99 15.62%
0 0 -373.2221 18 -322.8337 LiftProj:5 110 15.61%
0 0 -373.1701 17 -322.8337 LiftProj:4 115 15.59%
0 0 -373.1632 19 -322.8337 LiftProj:2 116 15.59%
0 0 -373.1600 18 -322.8337 LiftProj:2 120 15.59%
0+ 0 nan nan -371.0358 -373.1600 nan 0.57%
0 0 cutoff -371.0358 -373.1600 141 0.57% 0
CPXPARAM_MIP_Cuts_LiftProj 13
4
Node Left Objective IInf Best_Integer Best_Bound ItCnt Gap
0+ 0 nan nan 17229.3640 -1722.9364 nan 110.00%
0+ 0 nan nan -67.4145 -1722.9364 nan ---
0 0 -89.1646 11 -67.4145 -89.1646 97 32.26%
0 0 -88.8017 10 -67.4145 LiftProj:8 104 31.72%
0+ 0 nan nan -85.3062 -88.8017 nan 4.10%
0 0 -88.7262 11 -85.3062 LiftProj:10 111 4.01%
0 0 -88.6441 10 -85.3062 LiftProj:11 122 3.91%
0 0 -88.4880 12 -85.3062 LiftProj:10 137 3.73%
0 0 -87.8801 10 -85.3062 LiftProj:11 142 3.02%
0 0 -87.6845 12 -85.3062 LiftProj:9 154 2.79%
0+ 0 nan nan -85.5988 -87.6845 nan 2.44%
0 0 -87.6642 11 -85.5988 LiftProj:8 160 2.41%
0 0 -87.4972 11 -85.5988 LiftProj:7 173 2.22%
0 0 -87.3225 11 -85.5988 LiftProj:11 187 2.01%
0 0 -87.2589 9 -85.5988 LiftProj:9 195 1.94%
0 0 -87.2416 10 -85.5988 LiftProj:6 203 1.92%
0 0 -87.2001 11 -85.5988 LiftProj:8 212 1.87%
0 0 -87.1652 11 -85.5988 LiftProj:6 218 1.83%
0 0 -87.1541 9 -85.5988 LiftProj:7 225 1.82%
0 0 -87.1512 9 -85.5988 LiftProj:6 227 1.81%
0 2 -86.7458 4 -85.5988 -86.6460 227 1.22%
CPXPARAM_MIP_Cuts_LiftProj 14
5
Node Left Objective IInf Best_Integer Best_Bound ItCnt Gap
0+ 0 nan nan 19297.4075 -1929.7408 nan 110.00%
0+ 0 nan nan -216.7443 -1929.7408 nan 790.33%
0 0 -495.8139 18 -216.7443 -495.8139 104 128.76%
0+ 0 nan nan -360.6431 -495.8139 nan 37.48%
0 0 -495.6258 19 -360.6431 LiftProj:9 112 37.43%
0+ 0 nan nan -363.5780 -495.6258 nan 36.32%
0 0 -495.5653 23 -363.5780 LiftProj:11 125 36.30%
0 0 -495.4286 28 -363.5780 LiftProj:15 140 36.26%
0 0 -495.2306 27 -363.5780 LiftProj:13 156 36.21%
0 0 -494.8877 27 -363.5780 LiftProj:16 174 36.12%
0 0 -494.6796 30 -363.5780 LiftProj:16 190 36.06%
0 0 -494.1839 27 -363.5780 LiftProj:14 219 35.92%
0 0 -494.0612 31 -363.5780 LiftProj:17 229 35.89%
0 0 -493.8343 29 -363.5780 LiftProj:22 244 35.83%
0 0 -493.5988 28 -363.5780 LiftProj:18 256 35.76%
0 0 -493.5758 29 -363.5780 LiftProj:18 265 35.76%
0 0 -493.5403 27 -363.5780 LiftProj:15 277 35.75%
0+ 0 nan nan -481.1687 -493.5403 nan 2.57%
0+ 0 nan nan -484.0279 -493.5403 nan 1.97%
0 2 -493.5403 27 -484.0279 -493.5201 277 1.96%
CPXPARAM_MIP_Cuts_LiftProj 21
6
Node Left Objective IInf Best_Integer Best_Bound ItCnt Gap
0+ 0 nan nan 17283.6857 -1728.3686 nan 110.00%
0+ 0 nan nan -89.3561 -1728.3686 nan ---
0 0 -92.8995 6 -89.3561 -92.8995 83 3.97%
0 0 -92.8995 2 -89.3561 LiftProj:3 88 3.97%
0+ 0 nan nan -92.7479 -92.8995 nan 0.16%
0 1 -92.8339 5 -92.7479 -92.8293 92 0.09%
CPXPARAM_MIP_Cuts_LiftProj 3
7
Node Left Objective IInf Best_Integer Best_Bound ItCnt Gap
0+ 0 nan nan 18737.7240 -1873.9213 nan 110.00%
0+ 0 nan nan -349.2878 -1873.9213 nan 436.50%
0 0 -476.7132 19 -349.2878 -476.7132 92 36.48%
0+ 0 nan nan -351.7851 -476.7132 nan 35.51%
0 0 -476.4243 19 -351.7851 LiftProj:9 120 35.43%
0 0 -476.1124 22 -351.7851 LiftProj:10 139 35.34%
0 0 -475.9680 23 -351.7851 LiftProj:10 151 35.30%
0 0 -475.8561 23 -351.7851 LiftProj:10 164 35.27%
0 0 -475.7487 24 -351.7851 LiftProj:11 183 35.24%
0 0 -475.6644 26 -351.7851 LiftProj:11 200 35.21%
0 0 -475.4934 27 -351.7851 LiftProj:11 212 35.17%
0 0 -475.3421 24 -351.7851 LiftProj:14 226 35.12%
0 0 -474.9838 26 -351.7851 LiftProj:9 247 35.02%
0 0 -474.8014 26 -351.7851 LiftProj:13 258 34.97%
0 0 -474.5848 24 -351.7851 LiftProj:11 274 34.91%
0 0 -474.4956 28 -351.7851 LiftProj:10 290 34.88%
0 0 -474.4531 29 -351.7851 LiftProj:15 305 34.87%
0 0 -474.2791 30 -351.7851 LiftProj:11 321 34.82%
0 0 -474.0558 28 -351.7851 LiftProj:11 339 34.76%
0 0 -473.9755 28 -351.7851 LiftProj:15 354 34.73%
0 0 -473.9491 29 -351.7851 LiftProj:9 359 34.73%
0+ 0 nan nan -470.1406 -473.9491 nan 0.81%
0 2 -473.7799 23 -470.1406 -473.7377 359 0.77%
CPXPARAM_MIP_Cuts_LiftProj 25
8
Node Left Objective IInf Best_Integer Best_Bound ItCnt Gap
0+ 0 nan nan 20324.0135 -2032.4014 nan 110.00%
0+ 0 nan nan -89.4132 -2032.4014 nan ---
0 0 -103.1383 11 -89.4132 -103.1383 78 15.35%
0 0 -102.8966 12 -89.4132 LiftProj:8 83 15.08%
0+ 0 nan nan -100.8155 -102.8966 nan 2.06%
0 0 -102.7999 12 -100.8155 LiftProj:6 88 1.97%
0+ 0 nan nan -102.0140 -102.7999 nan 0.77%
0 0 -102.7112 11 -102.0140 LiftProj:4 93 0.68%
0 0 -102.6219 11 -102.0140 LiftProj:7 104 0.60%
0 0 -102.5093 10 -102.0140 LiftProj:7 114 0.49%
0 0 -102.5059 10 -102.0140 LiftProj:4 117 0.48%
0 0 -102.4121 9 -102.0140 LiftProj:5 124 0.39%
0 0 -102.3924 7 -102.0140 LiftProj:2 133 0.37%
0 0 -102.2060 5 -102.0140 LiftProj:2 142 0.19%
0 0 cutoff -102.0140 -102.0942 154 0.08% 0
CPXPARAM_MIP_Cuts_LiftProj 1
9
Node Left Objective IInf Best_Integer Best_Bound ItCnt Gap
0+ 0 nan nan 19574.3912 -1957.4391 nan 110.00%
0+ 0 nan nan -340.7562 -1957.4391 nan 474.44%
0 0 -481.4397 15 -340.7562 -481.4397 75 41.29%
0+ 0 nan nan -474.2321 -481.4397 nan 1.52%
0 0 -481.1562 12 -474.2321 LiftProj:10 85 1.46%
0 0 -480.9732 17 -474.2321 LiftProj:11 95 1.42%
0 0 -480.5799 16 -474.2321 LiftProj:9 108 1.34%
0 0 -480.4663 18 -474.2321 LiftProj:15 121 1.31%
0+ 0 nan nan -474.6302 -480.4663 nan 1.23%
0 0 -480.2134 16 -474.6302 LiftProj:13 141 1.18%
0 0 -480.1246 16 -474.6302 LiftProj:12 150 1.16%
0 0 -479.7487 14 -474.6302 LiftProj:12 167 1.08%
0 0 -479.6914 19 -474.6302 LiftProj:14 181 1.07%
0 0 -479.5739 21 -474.6302 LiftProj:12 190 1.04%
0 0 -479.5544 22 -474.6302 LiftProj:11 195 1.04%
0 0 -479.3579 12 -474.6302 LiftProj:6 204 1.00%
0+ 0 nan nan -475.2447 -479.3579 nan 0.87%
0 0 -479.3007 16 -475.2447 LiftProj:11 215 0.85%
0+ 0 nan nan -476.4445 -479.3007 nan 0.60%
0 2 -479.2146 10 -476.4445 -479.0572 215 0.55%
CPXPARAM_MIP_Cuts_LiftProj 8
10
Node Left Objective IInf Best_Integer Best_Bound ItCnt Gap
0+ 0 nan nan 27187.3215 -2718.7321 nan 110.00%
0+ 0 nan nan 10.9576 -2718.7321 nan ---
0 0 -173.4759 5 10.9576 -173.4759 75 ---
0+ 0 nan nan 7.7729 -173.4759 nan ---
0+ 0 nan nan -171.3795 -173.4759 nan 1.22%
0 0 -173.4759 3 -171.3795 LiftProj:4 81 1.22%
0 0 -173.4759 8 -171.3795 LiftProj:3 92 1.22%
0 0 -173.4759 6 -171.3795 LiftProj:4 100 1.22%
0 2 -173.4759 3 -171.3795 -173.4759 100 1.22%
CPXPARAM_MIP_Cuts_LiftProj 9
11
Node Left Objective IInf Best_Integer Best_Bound ItCnt Gap
0+ 0 nan nan 22470.7077 -2247.0708 nan 110.00%
0+ 0 nan nan -339.2451 -2247.0708 nan 562.37%
0 0 -573.6242 10 -339.2451 -573.6242 79 69.09%
0+ 0 nan nan -570.2156 -573.6242 nan 0.60%
0 0 -573.6242 13 -570.2156 LiftProj:3 94 0.60%
0 0 -573.4093 17 -570.2156 LiftProj:7 116 0.56%
0 0 -573.2864 18 -570.2156 LiftProj:6 123 0.54%
0+ 0 nan nan -570.3419 -573.2864 nan 0.52%
0 0 -573.2597 19 -570.3419 LiftProj:8 129 0.51%
0 0 -573.1589 20 -570.3419 LiftProj:9 145 0.49%
0 0 -573.1450 20 -570.3419 LiftProj:7 148 0.49%
0 2 -572.6878 5 -570.3419 -572.5677 148 0.39%
CPXPARAM_MIP_Cuts_LiftProj 15
12
Node Left Objective IInf Best_Integer Best_Bound ItCnt Gap
0+ 0 nan nan 21290.0070 -2129.0007 nan 110.00%
0+ 0 nan nan -108.2542 -2129.0007 nan ---
0 0 -125.5769 9 -108.2542 -125.5769 93 16.00%
0+ 0 nan nan -118.3639 -125.5769 nan 6.09%
0 0 -124.8694 10 -118.3639 LiftProj:6 108 5.50%
0+ 0 nan nan -118.7038 -124.8694 nan 5.19%
0 0 -124.7770 10 -118.7038 LiftProj:6 112 5.12%
0 0 -124.7303 12 -118.7038 LiftProj:6 115 5.08%
0 0 -124.5116 12 -118.7038 LiftProj:10 121 4.89%
0 0 -124.2165 10 -118.7038 LiftProj:8 139 4.64%
0 0 -124.1220 12 -118.7038 LiftProj:7 149 4.56%
0 0 -123.9518 12 -118.7038 LiftProj:11 160 4.42%
0+ 0 nan nan -121.2111 -123.9518 nan 2.26%
0 0 -123.8682 12 -121.2111 LiftProj:9 166 2.19%
0 0 -123.7235 12 -121.2111 LiftProj:10 172 2.07%
0 0 -123.5695 13 -121.2111 LiftProj:10 180 1.95%
0 0 -123.5127 13 -121.2111 LiftProj:12 188 1.90%
0 0 -123.3145 11 -121.2111 LiftProj:8 200 1.74%
0 0 -123.2840 14 -121.2111 LiftProj:9 208 1.71%
0 0 -123.1072 14 -121.2111 LiftProj:7 216 1.56%
0 0 -123.0733 14 -121.2111 LiftProj:6 224 1.54%
0 0 -123.0389 16 -121.2111 LiftProj:8 228 1.51%
0 0 -122.9987 13 -121.2111 LiftProj:8 237 1.47%
0 0 -122.9543 13 -121.2111 LiftProj:8 241 1.44%
0 0 -122.9276 14 -121.2111 LiftProj:10 247 1.42%
0 0 -122.9124 15 -121.2111 LiftProj:9 253 1.40%
0 0 -122.9061 13 -121.2111 LiftProj:4 257 1.40%
0 2 -122.4919 7 -121.2111 -122.3587 257 0.95%
CPXPARAM_MIP_Cuts_LiftProj 14
13
Node Left Objective IInf Best_Integer Best_Bound ItCnt Gap
0+ 0 nan nan 18711.1828 -1871.1183 nan 110.00%
0+ 0 nan nan -86.7463 -1871.1183 nan ---
0 0 -468.4244 16 -86.7463 -468.4244 90 439.99%
0+ 0 nan nan -462.1230 -468.4244 nan 1.36%
0 0 -468.2416 17 -462.1230 LiftProj:10 96 1.32%
0 0 -468.2416 20 -462.1230 LiftProj:11 107 1.32%
0 0 -468.0938 20 -462.1230 LiftProj:12 123 1.29%
0 0 -468.0344 24 -462.1230 LiftProj:17 133 1.28%
0 0 -467.9533 20 -462.1230 LiftProj:21 149 1.26%
0 0 -467.8334 29 -462.1230 LiftProj:15 165 1.24%
0 0 -467.8151 30 -462.1230 LiftProj:17 174 1.23%
0+ 0 nan nan -462.3653 -467.8151 nan 1.18%
0 2 -467.8151 26 -462.3653 -467.7628 174 1.17%
CPXPARAM_MIP_Cuts_LiftProj 18
14
Node Left Objective IInf Best_Integer Best_Bound ItCnt Gap
0+ 0 nan nan 22739.1838 -2273.9184 nan 110.00%
0+ 0 nan nan -144.2844 -2273.9184 nan ---
0 0 -146.9071 10 -144.2844 -146.9071 80 1.82%
0 0 -146.8581 7 -144.2844 LiftProj:4 87 1.78%
0 0 -146.7992 9 -144.2844 LiftProj:6 96 1.74%
0 0 -146.7827 18 -144.2844 LiftProj:4 107 1.73%
0 0 -146.7588 15 -144.2844 LiftProj:5 116 1.71%
0 0 -146.7521 19 -144.2844 LiftProj:5 128 1.71%
0+ 0 nan nan -145.9432 -146.7521 nan 0.55%
0 0 -146.7404 8 -145.9432 LiftProj:2 137 0.55%
0 0 -146.7374 9 -145.9432 LiftProj:4 142 0.54%
0+ 0 nan nan -145.9462 -146.7374 nan 0.54%
0 2 -146.7119 4 -145.9462 -146.7119 142 0.52%
CPXPARAM_MIP_Cuts_LiftProj 10
15
Node Left Objective IInf Best_Integer Best_Bound ItCnt Gap
0+ 0 nan nan 20293.1236 -2029.3124 nan 110.00%
0+ 0 nan nan -243.7454 -2029.3124 nan 732.55%
0 0 -518.7322 13 -243.7454 -518.7322 83 112.82%
0+ 0 nan nan -315.8010 -518.7322 nan 64.26%
0+ 0 nan nan -450.6273 -518.7322 nan 15.11%
0 0 -518.6655 20 -450.6273 LiftProj:12 105 15.10%
0 0 -518.6225 22 -450.6273 LiftProj:8 113 15.09%
0 0 -518.3455 21 -450.6273 LiftProj:11 134 15.03%
0 0 -518.2294 21 -450.6273 LiftProj:5 144 15.00%
0 0 -518.1058 23 -450.6273 LiftProj:6 153 14.97%
0 0 -518.0553 23 -450.6273 LiftProj:4 160 14.96%
0 0 -518.0317 21 -450.6273 LiftProj:5 167 14.96%
0 0 -518.0134 21 -450.6273 LiftProj:4 173 14.95%
0+ 0 nan nan -514.4241 -518.0134 nan 0.70%
0 2 -517.0841 10 -514.4241 -516.8926 173 0.48%
CPXPARAM_MIP_Cuts_LiftProj 20
16
Node Left Objective IInf Best_Integer Best_Bound ItCnt Gap
0+ 0 nan nan 21872.1954 -2187.2195 nan 110.00%
0+ 0 nan nan -112.2220 -2187.2195 nan ---
0 0 -126.4787 11 -112.2220 -126.4787 89 12.70%
0 0 -126.4231 14 -112.2220 LiftProj:9 104 12.65%
0 0 -126.2461 15 -112.2220 LiftProj:11 118 12.50%
0 0 -126.2455 15 -112.2220 LiftProj:9 125 12.50%
0 0 -126.1385 13 -112.2220 LiftProj:4 129 12.40%
0 0 -126.1385 15 -112.2220 LiftProj:9 137 12.40%
0+ 0 nan nan -120.6891 -126.1385 nan 4.52%
0+ 0 nan nan -124.1992 -126.1385 nan 1.56%
0 2 -126.1385 10 -124.1992 -126.0776 137 1.51%
CPXPARAM_MIP_Cuts_LiftProj 6
17
Node Left Objective IInf Best_Integer Best_Bound ItCnt Gap
0+ 0 nan nan 16639.6111 -1663.9611 nan 110.00%
0+ 0 nan nan -399.5270 -1663.9611 nan 316.48%
0 0 -404.1656 14 -399.5270 -404.1656 83 1.16%
0 0 -403.5814 13 -399.5270 LiftProj:6 99 1.01%
0 0 -403.5814 13 -399.5270 LiftProj:5 102 1.01%
0 0 -403.4994 15 -399.5270 LiftProj:9 122 0.99%
0 0 -403.2879 20 -399.5270 LiftProj:12 150 0.94%
0 0 -403.2479 21 -399.5270 LiftProj:15 164 0.93%
0 0 -403.0173 24 -399.5270 LiftProj:16 182 0.87%
0 0 -403.0079 24 -399.5270 LiftProj:13 188 0.87%
0 2 -403.0079 19 -399.5270 -402.9293 188 0.85%
CPXPARAM_MIP_Cuts_LiftProj 15
18
Node Left Objective IInf Best_Integer Best_Bound ItCnt Gap
0+ 0 nan nan 18821.9021 -1882.1902 nan 110.00%
0+ 0 nan nan -97.2991 -1882.1902 nan ---
0 0 -99.0172 8 -97.2991 -99.0172 77 1.77%
0 0 -99.0172 7 -97.2991 LiftProj:7 88 1.77%
0+ 0 nan nan -98.6205 -99.0172 nan 0.40%
0 0 -99.0165 9 -98.6205 LiftProj:3 94 0.40%
0 2 -99.0151 4 -98.6205 -98.9995 94 0.38%
CPXPARAM_MIP_Cuts_LiftProj 9
19
Node Left Objective IInf Best_Integer Best_Bound ItCnt Gap
0+ 0 nan nan 19012.1137 -1901.2740 nan 110.00%
0+ 0 nan nan -411.3325 -1901.2740 nan 362.22%
0 0 -474.7865 8 -411.3325 -474.7865 76 15.43%
0+ 0 nan nan -411.4107 -474.7865 nan 15.40%
0+ 0 nan nan -472.5175 -474.7865 nan 0.48%
0 0 -474.7865 8 -472.5175 LiftProj:2 84 0.48%
0 0 -474.7865 5 -472.5175 LiftProj:4 88 0.48%
0+ 0 nan nan -473.4153 -474.7865 nan 0.29%
0 0 -474.7865 5 -473.4153 LiftProj:2 91 0.29%
0+ 0 nan nan -474.7791 -474.7865 nan 0.00%
CPXPARAM_MIP_Cuts_LiftProj 6
20
Node Left Objective IInf Best_Integer Best_Bound ItCnt Gap
0+ 0 nan nan 15115.0246 -1511.5025 nan 110.00%
0+ 0 nan nan -66.4447 -1511.5025 nan ---
0 0 -90.2455 12 -66.4447 -90.2455 91 35.82%
0 0 -89.9330 10 -66.4447 LiftProj:5 103 35.35%
0+ 0 nan nan -88.1244 -89.9330 nan 2.05%
0 0 -89.6432 13 -88.1244 LiftProj:6 111 1.72%
0 0 -89.5071 13 -88.1244 LiftProj:8 116 1.57%
0 0 -89.3047 12 -88.1244 LiftProj:8 125 1.34%
0 0 -89.1431 10 -88.1244 LiftProj:6 132 1.16%
0 0 -89.0990 11 -88.1244 LiftProj:11 142 1.11%
0 0 -88.9701 12 -88.1244 LiftProj:5 153 0.96%
0 0 -88.8549 11 -88.1244 LiftProj:8 165 0.83%
0 0 -88.7880 10 -88.1244 LiftProj:5 173 0.75%
0 0 -88.6111 9 -88.1244 LiftProj:4 188 0.55%
0 0 -88.6092 9 -88.1244 LiftProj:5 192 0.55%
0 0 -88.3847 6 -88.1244 LiftProj:4 204 0.30%
0 0 cutoff -88.1244 221 0.00% 0 0
CPXPARAM_MIP_Cuts_LiftProj 2
21
Node Left Objective IInf Best_Integer Best_Bound ItCnt Gap
0+ 0 nan nan 15333.4248 -1533.3425 nan 110.00%
0+ 0 nan nan -221.9629 -1533.3425 nan 590.81%
0 0 -397.2126 26 -221.9629 -397.2126 110 78.95%
0+ 0 nan nan -235.8252 -397.2126 nan 68.44%
0 0 -396.2841 27 -235.8252 LiftProj:5 117 68.04%
0+ 0 nan nan -240.6087 -396.2841 nan 64.70%
0 0 -395.7365 29 -240.6087 LiftProj:11 125 64.47%
0 0 -395.3168 27 -240.6087 LiftProj:6 136 64.30%
0 0 -395.0250 29 -240.6087 LiftProj:16 148 64.18%
0 0 -394.9298 30 -240.6087 LiftProj:22 160 64.14%
0 0 -394.6749 32 -240.6087 LiftProj:16 178 64.03%
0 0 -393.9063 32 -240.6087 LiftProj:21 203 63.71%
0+ 0 nan nan -287.3368 -393.9063 nan 37.09%
0 0 -393.5370 33 -287.3368 LiftProj:18 221 36.96%
0 0 -393.3263 32 -287.3368 LiftProj:19 233 36.89%
0+ 0 nan nan -288.0971 -393.3263 nan 36.53%
0 0 -393.0544 33 -288.0971 LiftProj:16 246 36.43%
0 0 -392.8697 32 -288.0971 LiftProj:29 262 36.37%
0 0 -392.6294 34 -288.0971 LiftProj:23 281 36.28%
0 0 -392.4337 33 -288.0971 LiftProj:18 302 36.22%
0 0 -392.3644 35 -288.0971 LiftProj:18 317 36.19%
0 0 -392.3009 33 -288.0971 LiftProj:22 328 36.17%
0 0 -392.2166 35 -288.0971 LiftProj:22 335 36.14%
0 0 -391.9548 34 -288.0971 LiftProj:19 354 36.05%
0 0 -391.7610 35 -288.0971 LiftProj:20 366 35.98%
0 0 -391.6526 34 -288.0971 LiftProj:22 382 35.94%
0 0 -391.5885 35 -288.0971 LiftProj:22 394 35.92%
0 0 -391.4567 34 -288.0971 LiftProj:17 411 35.88%
0 0 -391.3562 36 -288.0971 LiftProj:19 423 35.84%
0 0 -391.2783 36 -288.0971 LiftProj:17 440 35.81%
0+ 0 nan nan -384.0136 -391.2783 nan 1.89%
0 2 -391.2693 34 -384.0136 -391.2588 440 1.89%
CPXPARAM_MIP_Cuts_LiftProj 30
22
Node Left Objective IInf Best_Integer Best_Bound ItCnt Gap
0+ 0 nan nan 15579.5689 -1557.9569 nan 110.00%
0+ 0 nan nan -75.9857 -1557.9569 nan ---
0 0 -96.9770 4 -75.9857 -96.9770 80 27.63%
0+ 0 nan nan -96.9770 -96.9770 nan 0.00%
0 0 cutoff -96.9770 -96.9770 80 0.00% 0
CPXPARAM_MIP_Cuts_LiftProj 0
23
Node Left Objective IInf Best_Integer Best_Bound ItCnt Gap
0+ 0 nan nan 16097.8588 -1609.8715 nan 110.00%
0+ 0 nan nan -135.1706 -1609.8715 nan ---
0 0 -420.0439 21 -135.1706 -420.0439 92 210.75%
0+ 0 nan nan -205.3944 -420.0439 nan 104.51%
0+ 0 nan nan -308.1357 -420.0439 nan 36.32%
0 0 -419.0077 23 -308.1357 LiftProj:3 101 35.98%
0+ 0 nan nan -308.4428 -419.0077 nan 35.85%
0 0 -418.5843 22 -308.4428 LiftProj:6 112 35.71%
0 0 -417.6232 23 -308.4428 LiftProj:8 128 35.40%
0 0 -417.2620 27 -308.4428 LiftProj:11 139 35.28%
0 0 -416.9966 28 -308.4428 LiftProj:11 153 35.19%
0 0 -415.8751 27 -308.4428 LiftProj:14 186 34.83%
0 0 -415.6495 28 -308.4428 LiftProj:12 206 34.76%
0 0 -415.2129 29 -308.4428 LiftProj:21 225 34.62%
0 0 -414.7822 31 -308.4428 LiftProj:12 245 34.48%
0 0 -414.6003 29 -308.4428 LiftProj:18 275 34.42%
0 0 -414.4999 29 -308.4428 LiftProj:16 290 34.38%
0 0 -414.2575 27 -308.4428 LiftProj:12 311 34.31%
0 0 -414.1032 30 -308.4428 LiftProj:18 330 34.26%
0 0 -413.8835 29 -308.4428 LiftProj:14 356 34.18%
0+ 0 nan nan -358.6380 -413.8835 nan 15.40%
0 0 -413.8209 29 -358.6380 LiftProj:13 373 15.39%
0 0 -413.7701 30 -358.6380 LiftProj:11 393 15.37%
0 0 -413.6671 29 -358.6380 LiftProj:15 420 15.34%
0 0 -413.4801 29 -358.6380 LiftProj:14 440 15.29%
0 0 -413.4139 29 -358.6380 LiftProj:14 452 15.27%
0+ 0 nan nan -408.5391 -413.4139 nan 1.19%
0 2 -413.4132 28 -408.5391 -413.3921 452 1.19%
CPXPARAM_MIP_Cuts_LiftProj 30
24
Node Left Objective IInf Best_Integer Best_Bound ItCnt Gap
0+ 0 nan nan 18436.4445 -1843.6444 nan 110.00%
0+ 0 nan nan -94.2493 -1843.6444 nan ---
0 0 -115.3546 13 -94.2493 -115.3546 85 22.39%
0+ 0 nan nan -112.0044 -115.3546 nan 2.99%
0 0 -114.8798 8 -112.0044 LiftProj:8 92 2.57%
0 0 -114.8381 8 -112.0044 LiftProj:5 94 2.53%
0 0 -114.4323 8 -112.0044 LiftProj:6 103 2.17%
0 0 -114.2397 7 -112.0044 LiftProj:5 114 2.00%
0 0 -114.1912 8 -112.0044 LiftProj:7 123 1.95%
0 0 -113.8538 9 -112.0044 LiftProj:5 139 1.65%
0 0 -113.5124 8 -112.0044 LiftProj:8 154 1.35%
0 0 -113.4555 9 -112.0044 LiftProj:6 162 1.30%
0 0 -113.3526 8 -112.0044 LiftProj:6 178 1.20%
0 0 -113.2789 9 -112.0044 LiftProj:7 185 1.14%
0 0 -113.1525 8 -112.0044 LiftProj:6 198 1.03%
0 0 -113.1030 9 -112.0044 LiftProj:7 207 0.98%
0 0 -113.0456 9 -112.0044 LiftProj:4 217 0.93%
0 0 -113.0355 9 -112.0044 LiftProj:8 222 0.92%
0 0 -113.0344 9 -112.0044 LiftProj:5 224 0.92%
0 1 -112.3349 3 -112.0044 -112.2576 224 0.23%
CPXPARAM_MIP_Cuts_LiftProj 14
25
Node Left Objective IInf Best_Integer Best_Bound ItCnt Gap
0+ 0 nan nan 18806.7169 -1880.6717 nan 110.00%
0+ 0 nan nan -288.0183 -1880.6717 nan 552.97%
0 0 -492.8236 25 -288.0183 -492.8236 100 71.11%
0+ 0 nan nan -362.9258 -492.8236 nan 35.79%
0 0 -490.7585 27 -362.9258 LiftProj:5 113 35.22%
0 0 -490.5724 27 -362.9258 LiftProj:15 124 35.17%
0 0 -489.9211 29 -362.9258 LiftProj:16 138 34.99%
0 0 -489.6329 30 -362.9258 LiftProj:13 158 34.91%
0 0 -489.5379 30 -362.9258 LiftProj:16 168 34.89%
0 0 -489.3401 29 -362.9258 LiftProj:19 182 34.83%
0 0 -489.0515 30 -362.9258 LiftProj:16 201 34.75%
0 0 -488.8336 32 -362.9258 LiftProj:14 211 34.69%
0 0 -488.8034 31 -362.9258 LiftProj:13 222 34.68%
0 0 -488.7004 32 -362.9258 LiftProj:15 245 34.66%
0 0 -488.5169 31 -362.9258 LiftProj:15 261 34.61%
0 0 -488.2969 32 -362.9258 LiftProj:20 277 34.54%
0 0 -488.1432 32 -362.9258 LiftProj:17 292 34.50%
0 0 -488.0257 33 -362.9258 LiftProj:15 303 34.47%
0 0 -487.8513 31 -362.9258 LiftProj:20 318 34.42%
0 0 -487.7460 33 -362.9258 LiftProj:18 327 34.39%
0 0 -487.3741 31 -362.9258 LiftProj:15 351 34.29%
0 0 -487.3051 34 -362.9258 LiftProj:25 363 34.27%
0+ 0 nan nan -476.9904 -487.3051 nan 2.16%
0+ 0 nan nan -478.4988 -487.3051 nan 1.84%
0 2 -487.3051 34 -478.4988 -487.3048 363 1.84%
CPXPARAM_MIP_Cuts_LiftProj 27
26
Node Left Objective IInf Best_Integer Best_Bound ItCnt Gap
0+ 0 nan nan 18555.8907 -1855.7233 nan 110.00%
0+ 0 nan nan -104.0034 -1855.7233 nan ---
0 0 -115.9815 5 -104.0034 -115.9815 67 11.52%
0+ 0 nan nan -115.9815 -115.9815 nan 0.00%
0 0 cutoff -115.9815 -115.9815 67 0.00% 0
CPXPARAM_MIP_Cuts_LiftProj 0
27
Node Left Objective IInf Best_Integer Best_Bound ItCnt Gap
0+ 0 nan nan 17101.2086 -1710.7893 nan 110.00%
0+ 0 nan nan -257.8104 -1710.7893 nan 563.58%
0 0 -441.6815 19 -257.8104 -441.6815 93 71.32%
0+ 0 nan nan -327.4274 -441.6815 nan 34.89%
0 0 -440.4343 20 -327.4274 LiftProj:5 105 34.51%
0+ 0 nan nan -327.5556 -440.4343 nan 34.46%
0 0 -440.2897 22 -327.5556 LiftProj:2 108 34.42%
0 0 -439.6981 21 -327.5556 LiftProj:3 118 34.24%
0 0 -439.2995 21 -327.5556 LiftProj:7 129 34.11%
0 0 -439.1966 22 -327.5556 LiftProj:9 138 34.08%
0 0 -438.8143 26 -327.5556 LiftProj:12 162 33.97%
0 0 -438.7553 25 -327.5556 LiftProj:11 179 33.95%
0 0 -438.6872 26 -327.5556 LiftProj:12 189 33.93%
0+ 0 nan nan -327.6314 -438.6872 nan 33.90%
0 0 -438.5804 27 -327.6314 LiftProj:10 208 33.86%
0 0 -438.2528 23 -327.6314 LiftProj:10 222 33.76%
0 0 -438.0470 23 -327.6314 LiftProj:9 234 33.70%
0 0 -437.6056 22 -327.6314 LiftProj:7 250 33.57%
0 0 -437.5507 25 -327.6314 LiftProj:8 258 33.55%
0 0 -437.3831 26 -327.6314 LiftProj:12 270 33.50%
0 0 -437.1025 25 -327.6314 LiftProj:11 287 33.41%
0 0 -436.9996 25 -327.6314 LiftProj:9 300 33.38%
0 0 -436.9370 26 -327.6314 LiftProj:11 309 33.36%
0+ 0 nan nan -432.4919 -436.9370 nan 1.03%
0+ 0 nan nan -432.5153 -436.9370 nan 1.02%
0 2 -436.9370 26 -432.5153 -436.9260 309 1.02%
CPXPARAM_MIP_Cuts_LiftProj 22
28
Node Left Objective IInf Best_Integer Best_Bound ItCnt Gap
0+ 0 nan nan 23195.9038 -2319.5904 nan 110.00%
0+ 0 nan nan -104.6712 -2319.5904 nan ---
0 0 -120.0533 11 -104.6712 -120.0533 77 14.70%
0 0 -119.6235 11 -104.6712 LiftProj:6 87 14.28%
0 0 -119.4254 10 -104.6712 LiftProj:8 96 14.10%
0+ 0 nan nan -115.2003 -119.4254 nan 3.67%
0 0 -119.3815 11 -115.2003 LiftProj:7 100 3.63%
0 0 -119.0078 11 -115.2003 LiftProj:6 111 3.31%
0 0 -118.8346 11 -115.2003 LiftProj:8 116 3.15%
0 0 -118.6195 13 -115.2003 LiftProj:6 134 2.97%
0 0 -118.5693 14 -115.2003 LiftProj:8 143 2.92%
0 0 -118.5319 14 -115.2003 LiftProj:8 151 2.89%
0+ 0 nan nan -117.2287 -118.5319 nan 1.11%
0 0 -118.4841 13 -117.2287 LiftProj:7 161 1.07%
0 0 -118.4398 13 -117.2287 LiftProj:7 164 1.03%
0 0 -118.3651 12 -117.2287 LiftProj:7 174 0.97%
0 0 -118.3288 11 -117.2287 LiftProj:4 180 0.94%
0 0 -118.3038 12 -117.2287 LiftProj:7 186 0.92%
0 0 -118.2677 11 -117.2287 LiftProj:6 191 0.89%
0 0 -118.2420 12 -117.2287 LiftProj:5 198 0.86%
0 0 -118.1857 11 -117.2287 LiftProj:13 209 0.82%
0 0 -118.1475 11 -117.2287 LiftProj:6 212 0.78%
0 0 -118.1393 12 -117.2287 LiftProj:3 217 0.78%
0 0 -118.1306 8 -117.2287 LiftProj:4 224 0.77%
0 2 -117.8688 5 -117.2287 -117.8328 224 0.52%
CPXPARAM_MIP_Cuts_LiftProj 13
29
Node Left Objective IInf Best_Integer Best_Bound ItCnt Gap
0+ 0 nan nan 18473.6572 -1847.3657 nan 110.00%
0+ 0 nan nan -427.6235 -1847.3657 nan 332.01%
0 0 -444.7353 17 -427.6235 -444.7353 96 4.00%
0 0 -444.6089 22 -427.6235 LiftProj:5 119 3.97%
0 0 -444.1993 22 -427.6235 LiftProj:7 130 3.88%
0 0 -444.1064 24 -427.6235 LiftProj:7 136 3.85%
0 0 -443.7652 10 -427.6235 LiftProj:6 157 3.77%
0 0 -443.7325 15 -427.6235 LiftProj:8 167 3.77%
0 0 -443.6632 20 -427.6235 LiftProj:9 177 3.75%
0 0 -443.6418 23 -427.6235 LiftProj:8 186 3.75%
0 0 -443.2344 14 -427.6235 LiftProj:5 198 3.65%
0 0 -443.0980 15 -427.6235 LiftProj:10 211 3.62%
0 0 -443.0251 17 -427.6235 LiftProj:9 217 3.60%
0 0 -443.0140 21 -427.6235 LiftProj:10 230 3.60%
0+ 0 nan nan -441.1471 -443.0140 nan 0.42%
0 2 -442.8345 6 -441.1471 -442.7903 230 0.37%
CPXPARAM_MIP_Cuts_LiftProj 6
30
Node Left Objective IInf Best_Integer Best_Bound ItCnt Gap
0+ 0 nan nan 20012.4297 -2001.2537 nan 110.00%
0+ 0 nan nan -82.7793 -2001.2537 nan ---
0 0 -93.4019 2 -82.7793 -93.4019 66 12.83%
0+ 0 nan nan -93.4019 -93.4019 nan 0.00%
CPXPARAM_MIP_Cuts_LiftProj 0
31
Node Left Objective IInf Best_Integer Best_Bound ItCnt Gap
0+ 0 nan nan 20469.5526 -2046.9553 nan 110.00%
0+ 0 nan nan -497.9458 -2046.9553 nan 311.08%
0 0 -506.7396 12 -497.9458 -506.7396 92 1.77%
0+ 0 nan nan -501.8232 -506.7396 nan 0.98%
0 0 -506.7396 3 -501.8232 LiftProj:1 99 0.98%
0+ 0 nan nan -506.6867 -506.7396 nan 0.01%
0 0 cutoff -506.6867 -506.7396 104 0.01% 0
CPXPARAM_MIP_Cuts_LiftProj 1
32
Node Left Objective IInf Best_Integer Best_Bound ItCnt Gap
0+ 0 nan nan 13911.0729 -1391.1073 nan 110.00%
0+ 0 nan nan -39.6136 -1391.1073 nan ---
0 0 -68.2827 6 -39.6136 -68.2827 77 72.37%
0+ 0 nan nan -65.9578 -68.2827 nan 3.52%
0 0 -66.0223 2 -65.9578 LiftProj:1 93 0.10%
0 0 cutoff -65.9578 96 0.00% 0 0
CPXPARAM_MIP_Cuts_LiftProj 1
33
Node Left Objective IInf Best_Integer Best_Bound ItCnt Gap
0+ 0 nan nan 16748.4512 -1674.8451 nan 110.00%
0+ 0 nan nan -180.4833 -1674.8451 nan 827.98%
0 0 -425.8102 14 -180.4833 -425.8102 120 135.93%
0+ 0 nan nan -362.2668 -425.8102 nan 17.54%
0 0 -425.5015 20 -362.2668 LiftProj:8 145 17.46%
0 0 -425.1104 22 -362.2668 LiftProj:10 158 17.35%
0 0 -424.8479 24 -362.2668 LiftProj:15 167 17.27%
0 0 -424.8242 27 -362.2668 LiftProj:11 184 17.27%
0+ 0 nan nan -364.6391 -424.8242 nan 16.51%
0 0 -424.5718 29 -364.6391 LiftProj:17 209 16.44%
0 0 -424.4963 32 -364.6391 LiftProj:15 224 16.42%
0 0 -423.8391 30 -364.6391 LiftProj:16 248 16.24%
0 0 -423.7255 30 -364.6391 LiftProj:16 259 16.20%
0 0 -423.5836 31 -364.6391 LiftProj:19 273 16.17%
0 0 -423.3613 32 -364.6391 LiftProj:21 285 16.10%
0 0 -423.2727 34 -364.6391 LiftProj:14 296 16.08%
0 0 -423.1273 31 -364.6391 LiftProj:18 309 16.04%
0 0 -423.0177 32 -364.6391 LiftProj:16 320 16.01%
0 0 -422.9364 33 -364.6391 LiftProj:20 333 15.99%
0 0 -422.6995 32 -364.6391 LiftProj:12 353 15.92%
0 0 -422.6522 33 -364.6391 LiftProj:17 363 15.91%
0 0 -422.6134 35 -364.6391 LiftProj:12 376 15.90%
0+ 0 nan nan -417.2537 -422.6134 nan 1.28%
0 2 -422.5616 34 -417.2537 -422.5496 376 1.27%
CPXPARAM_MIP_Cuts_LiftProj 34
34
Node Left Objective IInf Best_Integer Best_Bound ItCnt Gap
0+ 0 nan nan 19055.0102 -1905.5010 nan 110.00%
0+ 0 nan nan -113.0294 -1905.5010 nan ---
0 0 -121.1718 5 -113.0294 -121.1718 75 7.20%
0+ 0 nan nan -117.8797 -121.1718 nan 2.79%
0 0 -121.1718 10 -117.8797 LiftProj:4 92 2.79%
0+ 0 nan nan -119.8794 -121.1718 nan 1.08%
0 0 -121.1652 10 -119.8794 LiftProj:4 104 1.07%
0 0 -121.1652 8 -119.8794 LiftProj:1 106 1.07%
0+ 0 nan nan -120.6252 -121.1652 nan 0.45%
0+ 0 nan nan -120.6252 -121.1652 nan 0.45%
0 0 -120.9707 3 -120.6252 -120.9707 171 0.29%
0+ 0 nan nan -120.8524 -120.9707 nan 0.10%
0 0 cutoff -120.8524 180 0.00% 0 0
CPXPARAM_MIP_Cuts_LiftProj 8
35
Node Left Objective IInf Best_Integer Best_Bound ItCnt Gap
0+ 0 nan nan 16780.9114 -1678.3241 nan 110.00%
0+ 0 nan nan -187.6361 -1678.3241 nan 794.46%
0 0 -420.9670 14 -187.6361 -420.9670 75 124.35%
0+ 0 nan nan -253.1346 -420.9670 nan 66.30%
0+ 0 nan nan -417.9530 -420.9670 nan 0.72%
0 0 -420.9670 11 -417.9530 LiftProj:3 93 0.72%
0 0 -420.9127 12 -417.9530 LiftProj:4 104 0.71%
0 0 -420.5668 15 -417.9530 LiftProj:4 111 0.63%
0 0 -420.5094 16 -417.9530 LiftProj:5 116 0.61%
0 0 -420.3435 14 -417.9530 LiftProj:4 123 0.57%
0 0 -420.2911 17 -417.9530 LiftProj:4 128 0.56%
0 0 -420.1528 15 -417.9530 LiftProj:6 137 0.53%
0 0 -420.0193 16 -417.9530 LiftProj:4 142 0.49%
0 0 -419.9091 15 -417.9530 LiftProj:2 149 0.47%
0 0 -419.8162 16 -417.9530 LiftProj:8 158 0.45%
0 0 -419.7713 16 -417.9530 LiftProj:3 163 0.44%
0 0 -419.6896 16 -417.9530 LiftProj:3 171 0.42%
0 0 -419.5493 17 -417.9530 LiftProj:7 181 0.38%
0 0 -419.3540 15 -417.9530 LiftProj:3 192 0.34%
0 0 -419.0247 14 -417.9530 LiftProj:6 208 0.26%
0 0 -418.7234 13 -417.9530 LiftProj:3 219 0.18%
0 0 -418.4969 12 -417.9530 LiftProj:3 235 0.13%
0+ 0 nan nan -417.9530 -418.4969 nan 0.13%
0 0 -418.4969 12 -417.9530 -418.4969 303 0.13%
0 0 -418.3339 8 -417.9530 LiftProj:2 327 0.09%
0 0 -418.1928 3 -417.9530 LiftProj:1 338 0.06%
0 0 cutoff -417.9530 349 0.00% 0 0
CPXPARAM_MIP_Cuts_LiftProj 7
36
Node Left Objective IInf Best_Integer Best_Bound ItCnt Gap
0+ 0 nan nan 22941.7465 -2294.1747 nan 110.00%
0+ 0 nan nan -123.5349 -2294.1747 nan ---
0 0 -146.5944 12 -123.5349 -146.5944 96 18.67%
0 0 -145.4117 7 -123.5349 LiftProj:4 108 17.71%
0+ 0 nan nan -136.2648 -145.4117 nan 6.71%
0 0 -144.7699 6 -136.2648 LiftProj:5 117 6.24%
0 0 -144.7099 7 -136.2648 LiftProj:4 124 6.20%
0+ 0 nan nan -139.5063 -144.7099 nan 3.73%
0 0 -144.4588 6 -139.5063 LiftProj:4 131 3.55%
0+ 0 nan nan -140.1787 -144.4588 nan 3.05%
0 0 -144.3512 7 -140.1787 LiftProj:6 138 2.98%
0 0 -144.1290 7 -140.1787 LiftProj:5 149 2.82%
0 0 -143.9852 7 -140.1787 LiftProj:5 160 2.72%
0 0 -143.5595 8 -140.1787 LiftProj:5 172 2.41%
0 0 -142.9800 9 -140.1787 LiftProj:3 186 2.00%
0 0 -142.7735 7 -140.1787 LiftProj:6 193 1.85%
0 0 -142.7343 8 -140.1787 LiftProj:6 201 1.82%
0 0 -142.6585 9 -140.1787 LiftProj:6 212 1.77%
0 0 -142.3055 6 -140.1787 LiftProj:6 222 1.52%
0 0 -142.1554 7 -140.1787 LiftProj:6 234 1.41%
0 0 -142.0323 6 -140.1787 LiftProj:10 244 1.32%
0 0 -141.9254 8 -140.1787 LiftProj:6 256 1.25%
0 0 -141.8482 9 -140.1787 LiftProj:5 263 1.19%
0 0 -141.7861 8 -140.1787 LiftProj:6 268 1.15%
0 0 -141.7196 16 -140.1787 LiftProj:4 281 1.10%
0 0 -141.6621 16 -140.1787 LiftProj:12 290 1.06%
0 0 -141.6471 13 -140.1787 LiftProj:6 297 1.05%
0 0 -141.4467 8 -140.1787 LiftProj:4 311 0.90%
0 0 -141.3612 8 -140.1787 LiftProj:4 317 0.84%
0 0 -141.2472 9 -140.1787 LiftProj:5 321 0.76%
0 0 -141.1575 9 -140.1787 LiftProj:5 336 0.70%
0 0 -141.1399 9 -140.1787 LiftProj:3 340 0.69%
0 2 -140.4577 2 -140.1787 -140.4503 340 0.19%
CPXPARAM_MIP_Cuts_LiftProj 17
37
Node Left Objective IInf Best_Integer Best_Bound ItCnt Gap
0+ 0 nan nan 22253.7712 -2225.3771 nan 110.00%
0+ 0 nan nan -192.7597 -2225.3771 nan ---
0 0 -583.6149 25 -192.7597 -583.6149 103 202.77%
0+ 0 nan nan -350.5396 -583.6149 nan 66.49%
0 0 -582.4825 25 -350.5396 LiftProj:4 115 66.17%
0+ 0 nan nan -355.1572 -582.4825 nan 64.01%
0 0 -580.8087 27 -355.1572 LiftProj:16 129 63.54%
0 0 -580.5331 26 -355.1572 LiftProj:16 140 63.46%
0 0 -580.3105 29 -355.1572 LiftProj:15 154 63.40%
0 0 -579.8626 28 -355.1572 LiftProj:19 175 63.27%
0 0 -579.5903 30 -355.1572 LiftProj:18 189 63.19%
0 0 -579.0669 30 -355.1572 LiftProj:21 205 63.05%
0 0 -578.9290 33 -355.1572 LiftProj:18 220 63.01%
0 0 -577.4469 33 -355.1572 LiftProj:16 244 62.59%
0 0 -577.0109 31 -355.1572 LiftProj:24 266 62.47%
0 0 -576.4449 29 -355.1572 LiftProj:22 283 62.31%
0 0 -576.2342 31 -355.1572 LiftProj:14 296 62.25%
0 0 -576.2017 33 -355.1572 LiftProj:17 306 62.24%
0 0 -575.8432 31 -355.1572 LiftProj:13 325 62.14%
0 0 -575.7211 32 -355.1572 LiftProj:20 339 62.10%
0 0 -575.5267 34 -355.1572 LiftProj:19 358 62.05%
0 0 -575.3821 33 -355.1572 LiftProj:20 381 62.01%
0+ 0 nan nan -355.5276 -575.3821 nan 61.84%
0 0 -575.2388 34 -355.5276 LiftProj:18 397 61.80%
0 0 -575.1923 35 -355.5276 LiftProj:14 409 61.79%
0+ 0 nan nan -564.5562 -575.1923 nan 1.88%
0 2 -575.1923 35 -564.5562 -575.1804 409 1.88%
CPXPARAM_MIP_Cuts_LiftProj 29
38
Node Left Objective IInf Best_Integer Best_Bound ItCnt Gap
0+ 0 nan nan 19121.8104 -1912.4176 nan 110.00%
0+ 0 nan nan -95.8861 -1912.4176 nan ---
0 0 -109.3384 7 -95.8861 -109.3384 75 14.03%
0+ 0 nan nan -109.3384 -109.3384 nan 0.00%
0 0 cutoff -109.3384 -109.3384 75 0.00% 0
CPXPARAM_MIP_Cuts_LiftProj 0
39
Node Left Objective IInf Best_Integer Best_Bound ItCnt Gap
0+ 0 nan nan 22617.4474 -2261.8298 nan 110.00%
0+ 0 nan nan -361.4650 -2261.8298 nan 525.74%
0 0 -588.7435 24 -361.4650 -588.7435 97 62.88%
0+ 0 nan nan -434.4180 -588.7435 nan 35.52%
0 0 -587.1914 20 -434.4180 LiftProj:5 115 35.17%
0 0 -586.9219 24 -434.4180 LiftProj:16 123 35.11%
0 0 -586.2825 22 -434.4180 LiftProj:13 142 34.96%
0 0 -585.7411 27 -434.4180 LiftProj:14 161 34.83%
0 0 -585.3222 25 -434.4180 LiftProj:10 178 34.74%
0 0 -584.7435 27 -434.4180 LiftProj:18 195 34.60%
0 0 -583.6718 27 -434.4180 LiftProj:13 225 34.36%
0 0 -582.8501 27 -434.4180 LiftProj:17 248 34.17%
0 0 -582.7519 24 -434.4180 LiftProj:16 256 34.15%
0 0 -582.7013 29 -434.4180 LiftProj:14 266 34.13%
0 0 -582.5290 29 -434.4180 LiftProj:15 284 34.09%
0 0 -582.3445 26 -434.4180 LiftProj:12 304 34.05%
0 0 -582.2409 29 -434.4180 LiftProj:16 318 34.03%
0 0 -582.0040 27 -434.4180 LiftProj:9 334 33.97%
0 0 -581.9113 29 -434.4180 LiftProj:21 357 33.95%
0 0 -581.7945 30 -434.4180 LiftProj:16 367 33.93%
0 0 -581.6705 28 -434.4180 LiftProj:15 383 33.90%
0 0 -581.4917 28 -434.4180 LiftProj:12 397 33.86%
0 0 -581.3419 30 -434.4180 LiftProj:13 419 33.82%
0 0 -581.3060 31 -434.4180 LiftProj:10 427 33.81%
0+ 0 nan nan -575.4827 -581.3060 nan 1.01%
0 2 -581.3060 31 -575.4827 -581.2638 427 1.00%
CPXPARAM_MIP_Cuts_LiftProj 27
